c Lingeling SAT Solver
c 
c Version ala b02aa1a04343558c4252b5f4a723be021964f652
c 
c Copyright (C) 2010-2012 Armin Biere JKU Linz Austria.
c All rights reserved.
c 
c released Sat Oct 13 14:05:26 CEST 2012
c compiled Sat Feb 16 02:48:12 EST 2013
c 
c gcc (Debian 4.4.5-8) 4.4.5
c -Wall -O3 -DNLGLOG -DNDEBUG -DNCHKSOL -DNLGLPICOSAT 
c Linux greencar2 2.6.32-5-amd64 x86_64
c 
c reading input file p02.cnf
c no embedded options
c found 'p cnf 71542 211681' header
c read 71542 variables, 211681 clauses, 437728 literals in 0.0 seconds
c
c feature vars 71542
c feature lits.total 437728
c feature lits.pos 235956
c feature lits.neg 201772
c feature clauses.total 211681
c feature clauses.unit 28558
c feature clauses.bin 149799
c feature clauses.trn 32624
c feature clauses.lrg 700
c feature cog.val.min 1
c feature cog.val.avg 31825
c feature cog.val.max 67187
c feature cog.var.min 1
c feature cog.var.avg 35772
c feature cog.var.max 71541
c
c
c --abstime=0
c --acts=2
c --actavgmax=120
c --actstdmin=20
c --actstdmax=80
c --agile=23
c --bias=2
c --block=1
c --blkrtc=0
c --blkclslim=2000
c --blkocclim=2000
c --blkmaxeff=2147483647
c --blkmineff=10000000
c --blkreleff=20
c --card=0
c --cce=3
c --ccemaxeff=100000000
c --ccemineff=5000000
c --ccereleff=3
c --check=0
c --cgrclsr=1
c --cgrmaxority=20
c --cgrmaxeff=8000000
c --cgrmineff=200000
c --cgreleff=1
c --cgrexteq=1
c --cgrextand=1
c --cgrextunits=1
c --cgrextite=1
c --cgrextxor=1
c --cliff=1
c --cliffreleff=8
c --cliffmineff=10000000
c --cliffmaxeff=100000000
c --compact=0
c --decompose=1
c --defragint=10000000
c --defragfree=50
c --elim=1
c --elmrtc=0
c --elmblk=1
c --elmclslim=1000
c --elmocclim=1000
c --elmaxeff=100000000
c --elmineff=5000000
c --elmreleff=10
c --sleeponabort=0
c --exitonabort=0
c --flipping=1
c --flipint=2
c --flipdur=50
c --fliptop=1
c --force=0
c --gauss=1
c --gaussextrall=1
c --gaussmaxor=20
c --gaussexptrn=1
c --gaussmaxeff=50000000
c --gaussmineff=2000000
c --gaussreleff=2
c --gluescale=2
c --gluekeep=0
c --inprocessing=1
c --cintinc=10000
c --irrlim=20
c --lift=1
c --lftmaxeff=20000000
c --lftmineff=500000
c --lftreleff=6
c --lhbr=1
c --lkhd=1
c --clim=-1
c --mocint=1000
c --move=2
c --log=-1
c --otfs=1
c --phase=0
c --phaseneginit=0
c --plain=0
c --probe=1
c --prbasicmaxeff=100000000
c --prbasicmineff=1000000
c --prbasicreleff=10
c --prbasic=1
c --prbasicroundlim=9
c --queuemergelim=10000
c --queuefactor=833
c --queueinc=20
c --rmincpen=4
c --seed=0
c --smallirr=90
c --smallve=1
c --smallvevars=12
c --randec=1
c --randecint=1000
c --redfixed=0
c --redlbound=0
c --redlexpfac=10
c --redldoutfac=0
c --redloutinc=10000
c --redlinit=1000
c --redlinc=1000
c --redinoutinc=100
c --redlmininc=10
c --redlmaxinc=200
c --redlminrel=10
c --redlmaxrel=300
c --redlminabs=500
c --redlmaxabs=1000000
c --reduce=1
c --restart=2
c --restartint=5
c --rstinoutinc=110
c --simplify=1
c --simpdelay=100
c --simpen=4
c --sizepen=1000000
c --sizemaxpen=3
c --sortlits=0
c --syncint=111111
c --termint=122222
c --ternres=1
c --ternresrtc=0
c --trnrmineff=4000000
c --trnrmaxeff=40000000
c --trnreleff=10
c --transred=1
c --trdmineff=100000
c --trdmaxeff=2000000
c --trdreleff=10
c --unhide=1
c --unhdextstamp=1
c --unhdhbr=0
c --unhdmaxeff=20000000
c --unhdmineff=1000000
c --unhdreleff=4
c --unhdlnpr=3
c --unhdroundlim=5
c --verbose=1
c --witness=1
c [limits] no conflict limit
c [limits] simplification delayed by 100 to 100 conflicts
c 
c  seconds         irredundant          redundant clauses agility   height
c          variables clauses conflicts large binary ternary    glue         MB
c 
c *    0.0   34324   135799         0       0      0     0  31  0.0   0.0   14
c [cut-width] 44699, max 80255, min4 17000 at 74%, min10 16947 at 83%
c [decision-order] bias 1, old 1
c [queue-schedule-all-variables]
c s    0.0   34256   135799         0       0      0     0  31  0.0   0.0   14
c R    0.0   34256   135799        62      61      1     0  22  5.5  21.1   14
c [simplification-1] limit hit at 100 conflicts
c [simplification-1] simplification penalty of 4
c [ternres-1] limit 4000000 with penalty 0 = 0 + 0
c [ternres-1] all 34256 free variables schedulable
c [ternres-1] 0 ternary resolvents (0 bin, 0 trn)
c [ternres-1] fully completed ternary resolution
c [gauss-1] limit 2000000 penalty 0 = 0 + 0
c [gauss-1] extracted 128896 xors of average arity 2.0
c [gauss-1] connected 257820 occurrences of 34156 variables (average 7.5)
c [gauss-1] limit 2000000 penalty 0 = 0 + 0
c [gauss-1] exported 0 unary, 0 binary and 0 ternary equations
c G    0.3   34256   124013       100      95      4     1  18  6.0  22.7    9
c d    0.3   14417    59579       100      95      0     0  18  6.0  22.7    7
c [basicprobe-1] limit 1000000 penalty 0 = 0 + 0
c [basicprobe-1-0] 2207 probes remain 15% after last round
c [basicprobe-1-0] 24 units = 24 failed (100%) + 0 lifted (0%)
c [basicprobe-1-0] removed 29 variables, found 7268 hbrs
c p    0.4   14388    59579       100      95   7267     0  18  6.0  22.7    8
c [cgrclsr-1] limit 200000 penalty 0 = 0 + 0
c [cgrclsr-1] all 14388 free variables schedulable
c [cgrclsr-1] fully completed congruence closure
c [cgrclsr-1] removed 34 variables
c C    0.4   14354    59311       100      95   7092     0  18  6.0  22.7    7
c [lift-1] limit 500000 with penalty 0 = 0 + 0
c [lift-1] using 14354 probes 100%
c [lift-1] 14265 variables remain 100% (67 retained)
c [lift-1] removed 22 variables
c ^    0.5   14332    59191       100      95   8079     0  18  6.0  22.7    7
c [cliff-1] limit of 10000000 steps penalty 0 = 0 + 0
c [cliff-1] failed 59, lifted 120
c K    0.9   14083    59191       100      95  30389     0  18  6.0  22.7    8
c [unhide-1] limit 1000000 with penalty 0 = 0 + 0
c [unhide-1-4] 2 units, 10 failed, 25271 tauts, 0 hbrs, 161 literals
c u    1.1   14064    54159       100      95   8145     0  18  6.0  22.7    8
c [transred-1] limit 100000 with penalty 0 = 0 + 0
c t    1.1   14064    54158       100      95   8144     0  18  6.0  22.7    8
c [block-1] scheduling all variables this time
c [block-1] scheduled 14064 variables 100%
c [block-1] limit of 10000000 steps penalty 0 = 0 + 0
c [block-1] fully completed blocked clause elimination
c [block-1] transition to [ all 0 rem 0 ] state
c [block-1] eliminated 2046 blocked clauses
c k    1.1   14062    52103       100      95   8182  2001  18  6.0  22.7    7
c [cce-1] scheduling all variables this time
c [cce-1] limit of 10000000 steps penalty 0 = 0 + 0
c [cce-1] incomplete covered clause elimination 10196 not tried 73%
c [cce-1] transition to [ all 1 rem 1 ] state
c [cce-1] eliminated 1338 covered clauses
c E    1.4   13894    50765       100      95  14615  1958  18  6.0  22.7    7
c [elim-1] scheduling all variables this time
c [elim-1] scheduled 13894 variables 100%
c [elim-1] limit of 5000000 steps penalty 0 = 0 + 0
c [elim-1] incomplete variable elimination 2939 not tried 21%
c [elim-1] transition to [ all 1 rem 1 ] state
c [elim-1] eliminated 4056 = 29% variables out of 13894
c e    2.3    9838    47657       100      37   4336   237  18  6.0  22.7    7
c [phase-1] phase bias: 840 positive 21%, 3236 negative 79%
c [simplification-1] removed 24418 variables 71%
c [simplification-1] limit increments divided by 36
c [simplification-1] arithmetic increase of conflict limit interval by 277
c [simplification-1] new irredundant limit 626709
c [simplification-1] new conflict limit 377
c [simplification-1] simplification penalty reduced to 3
c R    2.3    9838    47657       167     101   4336   240  17  5.2  24.9    8
c [simplification-2] limit hit at 379 conflicts
c [simplification-2] simplification penalty of 3
c [ternres-2] limit 2000000 with penalty 1 = 1 + 0
c [ternres-2] all 9838 free variables schedulable
c [ternres-2] 393 ternary resolvents (6 bin, 387 trn)
c [ternres-2] fully completed ternary resolution
c T    2.4    9838    47657       379     284   4357   638  13  6.7  36.3    8
c [gauss-2] limit 1000000 penalty 1 = 1 + 0
c [gauss-2] extracted 632 xors of average arity 3.0
c [gauss-2] connected 1907 occurrences of 674 variables (average 2.8)
c [gauss-2] limit 1000000 penalty 1 = 1 + 0
c [gauss-2] fully completed
c [gauss-2] exported 0 unary, 0 binary and 0 ternary equations
c G    2.4    9838    47657       379     284   4357   638  13  6.7  36.3    7
c d    2.4    9837    47655       379     284   4357   638  13  6.7  36.3    7
c [basicprobe-2] limit 1000000 penalty 0 = 0 + 0
c [basicprobe-2-0] 1979 probes remain 20% after last round
c [basicprobe-2-0] 26 units = 26 failed (100%) + 0 lifted (0%)
c [basicprobe-2-0] removed 26 variables, found 638 hbrs
c p    2.5    9811    47655       379     284   4994   629  13  6.7  36.3    8
c [cgrclsr-2] limit 200000 penalty 0 = 0 + 0
c [cgrclsr-2] all 9811 free variables schedulable
c [cgrclsr-2] fully completed congruence closure
c [cgrclsr-2] removed 6 variables
c C    2.5    9805    47324       379     283   4978   615  13  6.7  36.3    7
c [lift-2] limit 500000 with penalty 0 = 0 + 0
c [lift-2] using 9756 probes 100%
c [lift-2] 9636 variables remain 98% (163 retained)
c [lift-2] removed 6 variables
c ^    2.6    9799    47260       379     282   5082   615  13  6.7  36.3    7
c [cliff-2] limit of 10000000 steps penalty 0 = 0 + 0
c [cliff-2] failed 53, lifted 40
c K    3.1    9702    47260       379     282   6914   603  13  6.7  36.3    8
c [unhide-2] limit 1000000 with penalty 0 = 0 + 0
c [unhide-2-9] 0 units, 1 failed, 1758 tauts, 0 hbrs, 2238 literals
c u    3.2    9701    45441       379     274   5804   516  13  6.7  36.3    7
c [transred-3] limit 100000 with penalty 0 = 0 + 0
c 
c  seconds         irredundant          redundant clauses agility   height
c          variables clauses conflicts large binary ternary    glue         MB
c 
c t    3.2    9701    45438       379     274   5803   516  13  6.7  36.3    7
c [block-2] scheduling all variables this time
c [block-2] scheduled 9701 variables 100%
c [block-2] limit of 10000000 steps penalty 0 = 0 + 0
c [block-2] fully completed blocked clause elimination
c [block-2] transition to [ all 0 rem 0 ] state
c [block-2] eliminated 0 blocked clauses
c [cce-2] 8144 variables 84% will be scheduled this time
c [cce-2] limit of 10000000 steps penalty 0 = 0 + 0
c [cce-2] 6145 variables 63% remain to be tried next time
c [cce-2] transition to [ all 0 rem 1 ] state
c [cce-2] eliminated 862 covered clauses
c E    3.5    9696    44576       379     274   6659   515  13  6.7  36.3    7
c [elim-2] 2770 variables 29% will be scheduled this time
c [elim-2] scheduled 2770 variables 29%
c [elim-2] limit of 5000000 steps penalty 0 = 0 + 0
c [elim-2] fully completed variable elimination
c [elim-2] transition to [ all 0 rem 0 ] state
c [elim-2] eliminated 52 = 1% variables out of 9696
c e    3.7    9644    44442       379     237   6555   509  13  6.7  36.3    7
c [phase-2] phase bias: 200 positive 82%, 45 negative 18%
c [simplification-2] removed 194 variables 1%
c [simplification-2] no reduction of limit increments
c [simplification-2] arithmetic increase of conflict limit interval by 10000
c [simplification-2] new irredundant limit 626709
c [simplification-2] new conflict limit 10656
c [simplification-2] simplification penalty reduced to 2
c R    3.7    9644    44442       412     268   6555   511  13  6.5  35.2    8
c R    3.8    9644    44442       993     795   6573   544   9  7.2  32.5    8
c -    3.8    9644    44442      1223     504   6579   553   9  6.9  31.2    8
c R    3.9    9644    44442      2305    1552   6587   578   7  9.5  30.8    8
c -    4.1    9644    44442      3847    1509   6608   632   8  8.9  29.6    8
c i    4.1    9643    44441      3870    1530   6608   633   8  8.9  29.5    8
c i    4.2    9642    44440      4306    1944   6612   650   8  9.0  29.1    9
c R    4.3    9642    44440      5260    2890   6613   657   9 10.3  29.5    9
c -    4.7    9642    44440      7450    2536   6629   692   8 10.3  28.8    9
c [simplification-3] limit hit at 10656 conflicts
c [simplification-3] simplification penalty of 2
c [ternres-3] limit 4000000 with penalty 0 = 0 + 0
c [ternres-3] all 9642 free variables schedulable
c [ternres-3] 107 ternary resolvents (0 bin, 107 trn)
c [ternres-3] fully completed ternary resolution
c T    5.2    9642    44440     10656    5665   6656   847   9 12.0  29.3   10
c [gauss-3] limit 500000 penalty 2 = 2 + 0
c [gauss-3] extracted 683 xors of average arity 2.6
c [gauss-3] connected 1793 occurrences of 811 variables (average 2.2)
c [gauss-3] limit 500000 penalty 2 = 2 + 0
c [gauss-3] fully completed
c [gauss-3] exported 0 unary, 0 binary and 0 ternary equations
c G    5.3    9642    44423     10656    5659   6653   833   9 12.0  29.3    8
c d    5.3    9545    44240     10656    5659   6617   833   9 12.0  29.3    8
c [basicprobe-3] limit 1000000 penalty 0 = 0 + 0
c [basicprobe-3-0] 1517 probes remain 16% after last round
c [basicprobe-3-0] 22 units = 22 failed (100%) + 0 lifted (0%)
c [basicprobe-3-0] removed 22 variables, found 544 hbrs
c p    5.4    9523    44240     10656    5659   7161   814   9 12.0  29.3    9
c [cgrclsr-3] limit 200000 penalty 0 = 0 + 0
c [cgrclsr-3] all 9523 free variables schedulable
c [cgrclsr-3] fully completed congruence closure
c [cgrclsr-3] removed 7 variables
c C    5.4    9516    43957     10656    5659   7153   813   9 12.0  29.3    8
c [lift-3] limit 500000 with penalty 0 = 0 + 0
c [lift-3] using 9355 probes 98%
c [lift-3] 9266 variables remain 97% (248 retained)
c [lift-3] removed 2 variables
c ^    5.5    9514    43937     10656    5659   7164   813   9 12.0  29.3    8
c [cliff-3] limit of 10000000 steps penalty 0 = 0 + 0
c [cliff-3] failed 16, lifted 10
c K    6.0    9488    43937     10656    5659   8788   792   9 12.0  29.3    9
c [unhide-3] limit 1000000 with penalty 0 = 0 + 0
c [unhide-3-13] 0 units, 0 failed, 473 tauts, 0 hbrs, 54474 literals
c u    6.3    9488    43548     10656    5641   8370   764   9 12.0  29.3    9
c [transred-5] limit 300729 with penalty 0 = 0 + 0
c t    6.3    9488    43541     10656    5641   8361   764   9 12.0  29.3    9
c [block-3] scheduling all variables this time
c [block-3] scheduled 9488 variables 100%
c [block-3] limit of 5000000 steps penalty 1 = 1 + 0
c [block-3] fully completed blocked clause elimination
c [block-3] transition to [ all 0 rem 0 ] state
c [block-3] eliminated 0 blocked clauses
c [cce-3] scheduling all variables this time
c [cce-3] limit of 10000000 steps penalty 0 = 0 + 0
c [cce-3] 5701 variables 60% remain to be tried next time
c [cce-3] transition to [ all 1 rem 1 ] state
c [cce-3] eliminated 121 covered clauses
c E    6.6    9488    43420     10656    5641   8539   764   9 12.0  29.3    8
c [elim-3] scheduling all variables this time
c [elim-3] scheduled 9488 variables 100%
c [elim-3] limit of 5000000 steps penalty 0 = 0 + 0
c [elim-3] incomplete variable elimination 189 not tried 2%
c [elim-3] transition to [ all 1 rem 1 ] state
c [elim-3] eliminated 872 = 9% variables out of 9488
c e    7.4    8616    42982     10656    3921   7273   721   9 12.0  29.3    8
c [phase-3] phase bias: 147 positive 89%, 19 negative 11%
c [simplification-3] removed 1026 variables 10%
c [simplification-3] limit increments divided by 6
c [simplification-3] arithmetic increase of conflict limit interval by 1666
c [simplification-3] new irredundant limit 626709
c [simplification-3] new conflict limit 22599
c [simplification-3] simplification penalty reduced to 1
c 
c  seconds         irredundant          redundant clauses agility   height
c          variables clauses conflicts large binary ternary    glue         MB
c 
c i    7.5    8615    42981     10969    4220   7280   727   8 11.8  29.0    9
c R    7.6    8615    42981     11804    5046   7286   730   7 12.3  29.7   10
c i    7.6    8614    42980     12042    5266   7299   734   7 12.2  29.4    9
c i    7.8    8613    42979     12825    6019   7314   747   7 12.0  28.9    9
c i    7.9    8612    42978     13250    6417   7326   761   8 11.8  28.5   10
c -    8.0    8612    42978     13877    3531   7332   768   9 12.0  28.5    9
c i    8.8    8611    42977     18850    8352   7397   850   8 11.8  26.7   10
c -    8.9    8611    42977     19514    4500   7407   856   8 11.7  26.4    9
c i    9.0    8610    42976     19586    4568   7409   857   8 11.7  26.4    9
c i    9.1    8609    42975     20177    5122   7429   873   7 11.6  26.1    9
c i    9.1    8603    42974     20571    5501   7434   882   7 11.5  26.0    9
c i    9.2    8602    42973     20926    5840   7440   891   7 11.5  25.8    9
c i    9.4    8601    42972     22025    6907   7451   911   8 11.5  25.6    9
c i    9.4    8600    42971     22103    6983   7452   911   8 11.5  25.6    9
c i    9.4    8599    42970     22350    7228   7453   911   8 11.5  25.5   10
c i    9.4    8598    42969     22487    7352   7460   916   8 11.4  25.5   10
c [simplification-4] limit hit at 22599 conflicts
c [simplification-4] simplification penalty of 1
c [ternres-4] limit 4000000 with penalty 0 = 0 + 0
c [ternres-4] all 8598 free variables schedulable
c [ternres-4] 111 ternary resolvents (2 bin, 109 trn)
c [ternres-4] fully completed ternary resolution
c T    9.5    8598    42969     22599    7464   7462  1025   8 11.5  25.5   10
c [gauss-4] limit 250000 penalty 3 = 3 + 0
c [gauss-4] extracted 181 xors of average arity 3.0
c [gauss-4] connected 536 occurrences of 399 variables (average 1.3)
c [gauss-4] limit 250000 penalty 3 = 3 + 0
c [gauss-4] fully completed
c [gauss-4] exported 0 unary, 0 binary and 0 ternary equations
c G    9.5    8598    42823     22599    6622   7389   848   8 11.5  25.5    8
c d    9.5    8592    42814     22599    6621   7358   847   8 11.5  25.5    8
c [basicprobe-4] limit 1000000 penalty 0 = 0 + 0
c [basicprobe-4-0] 1167 probes remain 14% after last round
c [basicprobe-4-0] 13 units = 13 failed (100%) + 0 lifted (0%)
c [basicprobe-4-0] removed 13 variables, found 253 hbrs
c p    9.6    8579    42814     22599    6621   7587   838   8 11.5  25.5    9
c [cgrclsr-4] limit 200000 penalty 0 = 0 + 0
c [cgrclsr-4] all 8579 free variables schedulable
c [cgrclsr-4] fully completed congruence closure
c [cgrclsr-4] removed 2 variables
c C    9.6    8577    42656     22599    6621   7564   831   8 11.5  25.5    8
c [lift-4] limit 500000 with penalty 0 = 0 + 0
c [lift-4] using 8364 probes 98%
c [lift-4] 8263 variables remain 96% (314 retained)
c [cliff-4] limit of 10000000 steps penalty 0 = 0 + 0
c [cliff-4] failed 33, lifted 1
c K   10.3    8543    42656     22599    6621   8380   818   8 11.5  25.5    9
c [unhide-4] limit 1000000 with penalty 0 = 0 + 0
c [unhide-4-17] 0 units, 0 failed, 1025 tauts, 0 hbrs, 32115 literals
c u   10.5    8543    41893     22599    6486   7607   716   8 11.5  25.5    9
c [transred-7] limit 670597 with penalty 0 = 0 + 0
c 
c  seconds         irredundant          redundant clauses agility   height
c          variables clauses conflicts large binary ternary    glue         MB
c 
c t   10.5    8543    41873     22599    6486   7586   716   8 11.5  25.5    9
c [block-4] scheduling all variables this time
c [block-4] scheduled 8543 variables 100%
c [block-4] limit of 2500000 steps penalty 2 = 2 + 0
c [block-4] fully completed blocked clause elimination
c [block-4] transition to [ all 0 rem 0 ] state
c [block-4] eliminated 0 blocked clauses
c [cce-4] 5613 variables 66% will be scheduled this time
c [cce-4] limit of 10000000 steps penalty 0 = 0 + 0
c [cce-4] 4920 variables 58% remain to be tried next time
c [cce-4] transition to [ all 0 rem 1 ] state
c [cce-4] eliminated 381 covered clauses
c E   10.9    8543    41492     22599    6486   8001   716   8 11.5  25.5    8
c [elim-4] 189 variables 2% will be scheduled this time
c [elim-4] scheduled 189 variables 2%
c [elim-4] limit of 5000000 steps penalty 0 = 0 + 0
c [elim-4] fully completed variable elimination
c [elim-4] transition to [ all 0 rem 0 ] state
c [elim-4] eliminated 0 = 0% variables out of 8543
c [phase-4] phase bias: 60 positive 71%, 24 negative 29%
c [simplification-4] removed 55 variables 0%
c [simplification-4] no reduction of limit increments
c [simplification-4] arithmetic increase of conflict limit interval by 10000
c [simplification-4] new irredundant limit 626709
c [simplification-4] new conflict limit 44542
c [simplification-4] simplification penalty reduced to 0
c i   11.1    8542    41491     23625    7507   8003   718   8 11.6  25.4   10
c i   11.1    8541    41490     23631    7511   8004   718   8 11.6  25.4   10
c i   11.2    8540    41489     24087    7949   8010   729   9 11.5  25.2   10
c i   11.4    8539    41488     25477    9329   8014   733   7 11.4  24.9   10
c i   11.5    8326    41487     25671    9515   8018   736   7 11.4  24.9   10
c i   11.5    8325    41486     25674    9516   8019   736   7 11.4  24.9   10
c i   11.5    8324    41485     25700    9539   8020   737   7 11.4  24.9   10
c i   11.5    8030    41484     25701    9539   8020   737   7 11.4  24.9   10
c i   11.5    8029    41483     25704    9539   8021   738   7 11.4  24.9   10
c i   11.5    7160    41482     25705    9539   8021   738   7 11.4  24.9   10
c 0   11.5    7072    41482     25705    9539   8021   738   7 11.4  24.9   10
c 
c  seconds         irredundant          redundant clauses agility   height
c          variables clauses conflicts large binary ternary    glue         MB
c 
c blkd: 4 bces, 2046 removed, 611810 resolutions, 1675267 steps
c blkd: 2095 blocking literals 1%, 2 pure
c cces: 4 cces, 1773 eliminated, 1773 ate 100%, 0 abce 0%
c cces: 20310 probed, 24 lifted, 109 failed
c clff: 4 cliffs, 171 lifted, 161 failed
c clff: 34329 decisions, 40052129 steps
c clls: 1 sat, 0 simp, 0 freeze, 0 melt
c clls: 649409 add, 0 assume,, 0 deref, 0 failed
c clls: 0 cassume, 0 mosat
c coll: 38 gcs, 0 rescored clauses
c cgrs: 4 count, 800000 esteps, 317089 csteps
c cgrs: 49 eqs, 0 units
c cgrs: 0 matched (0 ands 0%, 0 xors 0%, 0 ites 0%)
c cgrs: 0 simplified (0 ands 0%, 0 xors 0%, 0 ites 0%)
c cgrs: 6120 extracted (5347 ands 87%, 773 xors 13%, 0 ites 0%)
c dcps: 4 decompositions, 19993 equivalent 28%
c decs: 62397 decision, 61 random 0.098%
c decs: 12782 flipped 20.485% (in 127 phases)
c elms: 4 elims, 4982 eliminated 7%
c elms: 4978 small 100%, 2 large 0%
c elms: 18495 tried small, 4978 succeeded 27%, 13517 failed 73%
c elms: 258 subsumed, 17 strengthened, 51 blocked
c elms: 426416 copies, 371747 resolutions, 594065 ipos
c elms: 18798 subchks, 6673 strchks
c frcs: 0 computed, 26.9 - 73.1 average min-cut range
c gaus: 4 extractions, 130392 extracted, 2.0 size, 5 max
c gaus: exported 0 units, 0 binary and 0 ternary equations
c gaus: 0 gc, 5431750 steps, 2715875 extr 50%, 2301715 elim 42%
c glue: 11.4 avg, 3.4 scaled avg
c glue: 0 maxredglue=15 (0%)
c lift: 4 phases, 2201 probed (745 level1 34%, 1456 level2 66%)
c lift: 25 units, 1 equivalences, 41 implications
c hbrs: 43698 hbrs = 43698 trn 100% + 0 lrg 0%, 158 sub 0%
c lrnd: 25661 clauses, 11575 uips 45%, 41.4 length, 11.4 glue
c ints: 1023 luby (155167 steps), 0 inout (0 steps)
c mins: 1061627 learned lits, 55% minimized
c move: moved 3819, 1816 binary 48%, 2003 ternary 52%
c otfs: str 506 dyn (472 red, 34 irr) 44 drv 9%, 462 rst 91%
c otfs: sub 1 dyn (1 red, 0 irr)
c phas: 4 computed, 4589 set, 1247 pos (27%), 3342 neg (73%)
c prbs: 4 basic, 2450 probed, 85 failed, 0 lifted
c prps: 27519900 props, 207 props/dec
c prps: 47% srch, 53% simp, 0% lkhd
c psns: 3239079 searches, 629553 hits, 19% hit rate
c queu: 343400 new, 127641 del, 120 maximum priority
c queu: 215717 merged, 205756 collected, 23 gcs
c queu: 26167 deprioritized, 61.8 lines on average
c reds: 5 count, 0 reset, 5 acts 100%, 0 exp 0%
c reds: 5 arithmetic 100%, 5 double 100%
c rmbd: 50 removed, 32 red 64%
c rsts: 982 restarts 96%, 40 skipped 4%
c rsts: 266 kept 27.1% average 32.2%
c simp: 4 count (0 ilim 0%, 0 plim 0%, 4 clim 100%)
c trnr: 4 count, 8 bin, 603 trn, 2447283 steps
c tops: 39495 fixed 55%, 25 iterations
c trds: 8 transitive reductions, 63 removed, 0 failed
c trds: 1969 nodes, 3288 edges, 1173029 steps
c unhd: 4 count, 17 rounds, 4990764 steps
c unhd: 3834 non-trivial sccs of average size 2.0
c unhd: 2 units, 2 bin, 0 trn, 0 lrg
c unhd: 11 failed, 8 stamp, 0 lits, 1 bin, 0 trn, 0 lrg
c unhd: 28527 tauts, 77 bin 0%, 420 trn 1%, 146 lrg 1%
c unhd: 28527 tauts, 27884 stamp 98%, 23752 red 83%
c unhd: 0 hbrs, 0 trn 0%, 0 lrg 0%, 0 red 0%
c unhd: 88988 strd, 2 bin 0%, 57 trn 0%, 88929 lrg 100%, 88890 red 100%
c vars: 7072 remaining 10% and 64470 removed 90% out of 71542
c vars: 39495 fixed 55%, 4982 eliminated 7%, 19993 equivalent 28%
c vsts: 137620109 visits, 56% srch, 44% simp, 0% lkhd
c vsts: 6.0 search visits per propagation 3009.7 per conflict
c wchs: 28255379 pushed, 1940135 enlarged, 54 defrags
c 
c scaledglue  added       reduced       forcing      resolved     conflicts
c 
c all     24875 100     12504 100    693788 100    188014 100     10336 100
c 
c  0          0   0         0   0         0   0         0   0         0   0 
c  1        241   1       101   1     40230   6      3654   2       153   1 
c  2       6917  28      3048  24    465611  67<   100056  53      4945  48 
c  3       7336  29      3441  28    132004  19     49155  26<     2817  27<
c  4       4332  17<     2011  16<    35623   5     18287  10      1165  11 
c  5       3274  13      1868  15     13662   2      9976   5       675   7 
c  6       1712   7      1164   9      4542   1      4396   2       364   4 
c  7        820   3       664   5      1633   0      1948   1       167   2 
c  8        212   1       181   1       431   0       479   0        47   0 
c  9         29   0        26   0        49   0        59   0         3   0 
c 10          2   0         0   0         3   0         4   0         0   0 
c 11          0   0         0   0         0   0         0   0         0   0 
c 12          0   0         0   0         0   0         0   0         0   0 
c 13          0   0         0   0         0   0         0   0         0   0 
c 14          0   0         0   0         0   0         0   0         0   0 
c 15          0   0         0   0         0   0         0   0         0   0 
c 
c avg             3.5           3.8           2.3           2.8           2.9
c std             1.5           1.6           0.8           1.1           1.3
c 
c 62397 decisions, 25705 conflicts, 2239.8 conflicts/sec
c 27519900 propagations, 2.4 megaprops/sec
c 11.5 seconds, 18.2 MB
c 
c    1.056   9% analysis
c    0.132   1% block
c    0.304   3% bump
c    0.000   0% card
c    1.284  11% cce
c    2.024  18% cliff
c    0.004   0% cutwidth
c    0.024   0% decide
c    0.000   0% force
c    0.420   4% gc
c    0.168   1% cgrclsr
c    0.104   1% decomp
c    0.104   1% defrag
c    1.820  16% elim
c    0.384   3% gauss
c    0.212   2% lift
c    0.288   3% mincls
c    0.016   0% phase
c    0.256   2% probe
c    0.012   0% reduce
c    0.036   0% restart
c    0.032   0% ternres
c    0.060   1% transred
c    0.704   6% unhide
c ==================================
c    0.008   0% preprocessing     0%
c    7.248  63% inprocessing    100%
c ==================================
c    7.256  63% simplifying
c    0.000   0% lookahead
c    4.220  37% search
c ==================================
c   11.477 100% all
c
s UNSATISFIABLE
